
Gurobi 10.0.1 (linux64) logging started Sun Nov 26 15:37:22 2023

Set parameter LogFile to value "ArtificialInstance/ExperimentV2/S2T4K1/BaRo/gurobi1.txt"
Gurobi Optimizer version 10.0.1 build v10.0.1rc0 (linux64)

CPU model: AMD EPYC 7H12 64-Core Processor, instruction set [SSE2|AVX|AVX2]
Thread count: 128 physical cores, 128 logical processors, using up to 32 threads

Academic license 656792 - for non-commercial use only - registered to b.___@student.vu.nl
Optimize a model with 1107 rows, 1681 columns and 5682 nonzeros
Model fingerprint: 0x0528b7ac
Variable types: 1 continuous, 1680 integer (1680 binary)
Coefficient statistics:
  Matrix range     [1e+00, 4e+01]
  Objective range  [1e+00, 2e+01]
  Bounds range     [1e+00, 1e+00]
  RHS range        [1e+00, 1e+00]
Found heuristic solution: objective 499.4682214
Presolve time: 0.01s
Presolved: 1107 rows, 1681 columns, 5682 nonzeros
Variable types: 1 continuous, 1680 integer (1680 binary)

Root relaxation: objective 3.291937e+01, 824 iterations, 0.02 seconds (0.01 work units)

    Nodes    |    Current Node    |     Objective Bounds      |     Work
 Expl Unexpl |  Obj  Depth IntInf | Incumbent    BestBd   Gap | It/Node Time

     0     0   32.91937    0  168  499.46822   32.91937  93.4%     -    0s
H    0     0                     128.4808595   32.91937  74.4%     -    0s
H    0     0                      73.9059350   32.91937  55.5%     -    0s
H    0     0                      56.0367471   32.91937  41.3%     -    0s
     0     0   37.91105    0  262   56.03675   37.91105  32.3%     -    0s
H    0     0                      51.9881177   37.91105  27.1%     -    0s
H    0     0                      48.1483433   37.91105  21.3%     -    0s
     0     0   41.16086    0  219   48.14834   41.16086  14.5%     -    0s
     0     0   41.43160    0  283   48.14834   41.43160  14.0%     -    0s
     0     0   41.66964    0  283   48.14834   41.66964  13.5%     -    0s
H    0     0                      48.1181009   42.32129  12.0%     -    0s
     0     0   42.83739    0  313   48.11810   42.83739  11.0%     -    0s
     0     0   43.09227    0  313   48.11810   43.09227  10.4%     -    0s
     0     0   44.90924    0  313   48.11810   44.90924  6.67%     -    0s
     0     0   44.90924    0  278   48.11810   44.90924  6.67%     -    0s
     0     0   44.90924    0  166   48.11810   44.90924  6.67%     -    0s
     0     0   44.90924    0  269   48.11810   44.90924  6.67%     -    0s
     0     0   44.90924    0  308   48.11810   44.90924  6.67%     -    0s
     0     0   44.90924    0  293   48.11810   44.90924  6.67%     -    0s
     0     0   44.90924    0  182   48.11810   44.90924  6.67%     -    0s
     0     0   44.90924    0  292   48.11810   44.90924  6.67%     -    0s
     0     0   44.90924    0  310   48.11810   44.90924  6.67%     -    0s
     0     0   44.90924    0  310   48.11810   44.90924  6.67%     -    0s
     0     0   44.90924    0  335   48.11810   44.90924  6.67%     -    0s
     0     0   44.90924    0  336   48.11810   44.90924  6.67%     -    0s
     0     0   44.90924    0  337   48.11810   44.90924  6.67%     -    0s
     0     0   44.90924    0  326   48.11810   44.90924  6.67%     -    1s
     0     2   44.90924    0  325   48.11810   44.90924  6.67%     -    1s

Cutting planes:
  Gomory: 7
  Zero half: 27
  RLT: 44

Explored 55 nodes (10156 simplex iterations) in 1.40 seconds (0.70 work units)
Thread count was 32 (of 128 available processors)

Solution count 7: 48.1181 48.1483 51.9881 ... 499.468

Optimal solution found (tolerance 1.00e-04)
Best objective 4.811810091140e+01, best bound 4.811809935030e+01, gap 0.0000%
